 vasp.5.4.4.18Apr17-6-g9f103f2a35 (build Feb 01 2019 03:23:26) complex

 executed on             LinuxIFC date 2020.05.31  10:51:29

 INCAR:
 POTCAR:    PAW_PBE Si 05Jan2001
 POTCAR:    PAW_PBE H 15Jun2001
 POTCAR:    PAW_PBE C 08Apr2002

 POTCAR:    PAW_PBE Si 05Jan2001
   VRHFIN =Si: s2p2

   TITEL  = PAW_PBE Si 05Jan2001
   POMASS =   28.085; ZVAL   =    4.000    mass and valenz
   ENMAX  =  245.345; ENMIN  =  184.009 eV

 POTCAR:    PAW_PBE H 15Jun2001
   VRHFIN =H: ultrasoft test

   TITEL  = PAW_PBE H 15Jun2001
   POMASS =    1.000; ZVAL   =    1.000    mass and valenz
   ENMAX  =  250.000; ENMIN  =  200.000 eV

 POTCAR:    PAW_PBE C 08Apr2002
   VRHFIN =C: s2p2

   TITEL  = PAW_PBE C 08Apr2002
   POMASS =   12.011; ZVAL   =    4.000    mass and valenz
   ENMAX  =  400.000; ENMIN  =  300.000 eV

 Optimization of the real space projectors (new method)

 maximal supplied QI-value         = 19.84
 optimisation between [QCUT,QGAM] = [ 12.50, 25.00] = [ 43.76,175.03] Ry
 Optimized for a Real-space Cutoff    1.16 Angstroem

   l    n(q)    QCUT    max X(q) W(low)/X(q) W(high)/X(q)  e(spline)
   0      9    12.501   159.560    0.10E-03    0.83E-04    0.71E-07
   0      9    12.501   115.863    0.99E-04    0.81E-04    0.70E-07
   1      8    12.501    88.339    0.20E-03    0.25E-03    0.76E-07
   1      8    12.501    48.592    0.20E-03    0.24E-03    0.75E-07
 Optimization of the real space projectors (new method)

[...]

   l    n(q)    QCUT    max X(q) W(low)/X(q) W(high)/X(q)  e(spline)
   0      8    12.313    19.460    0.10E-03    0.25E-03    0.27E-06
   0      8    12.313    12.209    0.92E-04    0.23E-03    0.26E-06
   1      8    12.313     4.655    0.24E-03    0.28E-03    0.15E-06
 Optimization of the real space projectors (new method)

 maximal supplied QI-value         = 25.13
 optimisation between [QCUT,QGAM] = [ 12.32, 24.88] = [ 42.47,173.37] Ry
 Optimized for a Real-space Cutoff    1.16 Angstroem

   l    n(q)    QCUT    max X(q) W(low)/X(q) W(high)/X(q)  e(spline)
   0      9    12.315   115.676    0.19E-03    0.80E-05    0.34E-06
   0      9    12.315    87.132    0.19E-03    0.82E-05    0.34E-06
   1      8    12.315     4.429    0.18E-03    0.13E-03    0.22E-06
   1      8    12.315     2.733    0.14E-03    0.10E-03    0.18E-06
  PAW_PBE Si 05Jan2001                  :
  PAW_PBE H 15Jun2001                   :
  PAW_PBE C 08Apr2002                   :

 POSCAR: Si2 H54 C44  [TRI,TRI1b,aP100] (STD_PRIM
  positions in direct lattice
 exchange correlation table for  LEXCH =        8
   RHO(1)=    0.500       N(1)  =     2000
   RHO(2)=  100.500       N(2)  =     4000

 ion  position               nearest neighbor table
   1  0.753  0.323  0.704-  60 1.83  62 1.90  57 1.90  61 1.90
   2  0.247  0.677  0.296-  87 1.83  94 1.90  92 1.90  93 1.90
   3  0.046  0.283  0.670-  57 1.11
   4  0.060  0.416  0.514-  58 1.10
   5  0.259  0.419  0.663-  58 1.10
   6  0.081  0.470  0.717-  58 1.10
   7  0.020  0.279  0.999-  59 1.10
   8  0.080  0.387  0.009-  59 1.10
   9  0.240  0.328  0.943-  59 1.10
  10  0.731  0.373  0.404-  61 1.10
  11  0.495  0.379  0.782-  62 1.10
  12  0.723  0.188  0.428-  64 1.10
  13  0.913  0.263  0.378-  64 1.10
  14  0.712  0.241  0.229-  64 1.10
  15  0.424  0.291  0.281-  65 1.10
  16  0.404  0.346  0.474-  65 1.10
  17  0.404  0.240  0.484-  65 1.10
  18  0.598  0.530  0.765-  66 1.10
  19  0.646  0.482  0.573-  66 1.10
  20  0.826  0.517  0.738-  66 1.10
  21  0.836  0.440  0.040-  67 1.10
  22  0.659  0.355  0.071-  67 1.10
  23  0.609  0.456  0.061-  67 1.10
  24  0.901  0.150  0.048-  71 1.09
  25  0.275  0.136  0.749-  74 1.09
  26  0.725  0.864  0.251-  77 1.09
  27  0.099  0.850  0.952-  78 1.09
  28  0.212  0.160  0.203-  80 1.09
  29  0.959  0.129  0.603-  84 1.09
  30  0.439  0.095  0.382-  85 1.09
  31  0.041  0.871  0.397-  86 1.09
  32  0.788  0.840  0.797-  88 1.09
  33  0.647  0.049  0.522-  89 1.09
  34  0.353  0.951  0.478-  90 1.09
  35  0.561  0.905  0.618-  91 1.09
  36  0.954  0.717  0.330-  92 1.11
  37  0.269  0.627  0.596-  93 1.10
  38  0.505  0.621  0.218-  94 1.10
  39  0.940  0.584  0.486-  95 1.10
  40  0.741  0.581  0.337-  95 1.10
  41  0.919  0.530  0.283-  95 1.10
  42  0.980  0.721  0.001-  96 1.10
  43  0.920  0.613  0.991-  96 1.10
  44  0.760  0.672  0.057-  96 1.10
  45  0.277  0.812  0.572-  97 1.10
  46  0.087  0.737  0.622-  97 1.10
  47  0.288  0.759  0.771-  97 1.10
  48  0.576  0.709  0.719-  98 1.10
  49  0.596  0.654  0.526-  98 1.10
  50  0.596  0.760  0.516-  98 1.10
  51  0.402  0.470  0.235-  99 1.10
  52  0.354  0.518  0.427-  99 1.10
  53  0.174  0.483  0.262-  99 1.10
  54  0.164  0.560  0.960- 100 1.10
  55  0.341  0.645  0.929- 100 1.10
  56  0.391  0.544  0.939- 100 1.10
  57  0.015  0.336  0.741-   3 1.11  58 1.53  59 1.53   1 1.90
  58  0.108  0.414  0.654-   4 1.10   6 1.10   5 1.10  57 1.53
  59  0.092  0.332  0.933-   8 1.10   7 1.10   9 1.10  57 1.53
  60  0.660  0.226  0.806-  63 1.23   1 1.83
[...]
  86  0.078  0.934  0.355-  31 1.09  90 1.37  81 1.43
  87  0.340  0.774  0.194-  82 1.23   2 1.83
  88  0.826  0.903  0.753-  32 1.09  91 1.37  83 1.43
  89  0.749  0.022  0.600-  33 1.09  84 1.37  91 1.42
  90  0.251  0.978  0.400-  34 1.09  86 1.37  85 1.42
  91  0.700  0.939  0.654-  35 1.09  88 1.37  89 1.42
  92  0.985  0.664  0.259-  36 1.11  95 1.53  96 1.53   2 1.90
  93  0.323  0.687  0.541-  37 1.10  97 1.53  98 1.53   2 1.90
  94  0.356  0.595  0.194-  38 1.10 100 1.53  99 1.53   2 1.90
  95  0.892  0.586  0.346-  39 1.10  41 1.10  40 1.10  92 1.53
  96  0.908  0.668  0.067-  43 1.10  42 1.10  44 1.10  92 1.53
  97  0.239  0.752  0.631-  46 1.10  45 1.10  47 1.10  93 1.53
  98  0.534  0.703  0.577-  49 1.10  50 1.10  48 1.10  93 1.53
  99  0.320  0.512  0.285-  52 1.10  53 1.10  51 1.10  94 1.53
 100  0.311  0.586  0.995-  55 1.10  54 1.10  56 1.10  94 1.53

  LATTYP: Found a triclinic cell.
 ALAT       =     7.3882606431
 B/A-ratio  =     2.6178404329
 C/A-ratio  =     1.0363365615
 COS(alpha) =     0.0318330830
 COS(beta)  =     0.0924336005
 COS(gamma) =     0.5371410586

  Lattice vectors:

 A1 = (   7.3882606431,   0.0000000000,   0.0000000000)
 A2 = (  10.3889996111, -16.3142295845,   0.0000000000)
 A3 = (   0.7077386252,   0.1617303474,  -7.6222294242)

Analysis of symmetry for initial positions (statically):
 Subroutine PRICEL returns:
 Original cell was already a primitive cell.

 Routine SETGRP: Setting up the symmetry group for a
 triclinic supercell.

 Subroutine GETGRP returns: Found  2 space group operations
 (whereof  2 operations were pure point group operations)
 out of a pool of  2 trial point group operations.

The static configuration has the point symmetry S_2 .

Analysis of symmetry for dynamics (positions and initial velocities):
 Subroutine PRICEL returns:
 Original cell was already a primitive cell.

 Routine SETGRP: Setting up the symmetry group for a
 triclinic supercell.

 Subroutine GETGRP returns: Found  2 space group operations
 (whereof  2 operations were pure point group operations)
 out of a pool of  2 trial point group operations.

The dynamic configuration has the point symmetry S_2 .

 Subroutine INISYM returns: Found  2 space group operations
 (whereof  2 operations are pure point group operations),
 and found     1 'primitive' translations

 KPOINTS: pymatgen v2020.3.2 with grid density = 2

Automatic generation of k-mesh.
Space group operators:
 irot       det(A)        alpha          n_x          n_y          n_z        tau_x        tau_y        tau_z
    1     1.000000     0.000000     1.000000     0.000000     0.000000     0.000000     0.000000     0.000000
    2    -1.000000     0.000000     1.000000     0.000000     0.000000     0.000000     0.000000     0.000000

 Subroutine IBZKPT returns following result:

 Found      5 irreducible k-points:

 Following reciprocal coordinates:
            Coordinates               Weight
  0.000000  0.000000  0.000000      1.000000
  0.333333  0.000000  0.000000      2.000000
  0.000000  0.333333  0.000000      2.000000
  0.333333  0.333333  0.000000      2.000000
 -0.333333  0.333333 -0.000000      2.000000

 Following cartesian coordinates:
            Coordinates               Weight
  0.000000  0.000000  0.000000      1.000000
  0.045117  0.008298  0.004365      2.000000
  0.000000  0.020432  0.000434      2.000000
  0.045117  0.028731  0.004799      2.000000
 -0.045117  0.012134 -0.003932      2.000000

 SYSTEM =  Static scf
 POSCAR =  Si2 H54 C44  [TRI,TRI1b,aP100] (STD_PRIM

 Startparameter for this run:
   NWRITE =      2    write-flag & timer
   PREC   = accura    normal or accurate (medium, high low for compatibility)
   ISTART =      0    job   : 0-new  1-cont  2-samecut
   ICHARG =      0    charge: 1-file 2-atom 10-const
   ISPIN  =      1    spin polarized calculation?
   LNONCOLLINEAR =      F non collinear calculations
   LSORBIT =      F    spin-orbit coupling
   INIWAV =      1    electr: 0-lowe 1-rand  2-diag
   LASPH  =      T    aspherical Exc in radial PAW
   METAGGA=      F    non-selfconsistent MetaGGA calc.

 Electronic Relaxation 1
   ENCUT  =  600.0 eV  44.10 Ry    6.64 a.u.  14.76 33.13 15.29*2*pi/ulx,y,z
   ENINI  =  600.0     initial cutoff
   ENAUG  =  644.9 eV  augmentation charge cutoff
   NELM   =    200;   NELMIN=  2; NELMDL= -5     # of ELM steps
   EDIFF  = 0.1E-05   stopping-criterion for ELM
   LREAL  =      T    real-space projection
   NLSPLINE    = F    spline interpolate recip. space projectors
   LCOMPAT=      F    compatible to vasp.4.4
   GGA_COMPAT  = T    GGA compatible to vasp.4.4-vasp.4.6
   LMAXPAW     = -100 max onsite density
   LMAXMIX     =    2 max onsite mixed and CHGCAR
   VOSKOWN=      0    Vosko Wilk Nusair interpolation
   ROPT   =   -0.00025  -0.00025  -0.00025
 Ionic relaxation
   EDIFFG = -.2E-01   stopping-criterion for IOM
   NSW    =      0    number of steps for IOM
   NBLOCK =      1;   KBLOCK =      1    inner block; outer block
   IBRION =     -1    ionic relax: 0-MD 1-quasi-New 2-CG
   NFREE  =      0    steps in history (QN), initial steepest desc. (CG)
   ISIF   =      3    stress and relaxation
   IWAVPR =     10    prediction:  0-non 1-charg 2-wave 3-comb
   ISYM   =      2    0-nonsym 1-usesym 2-fastsym
   LCORR  =      T    Harris-Foulkes like correction to forces

   POTIM  = 0.5000    time-step for ionic-motion
   TEIN   =    0.0    initial temperature
   TEBEG  =    0.0;   TEEND  =   0.0 temperature during run
   SMASS  =  -3.00    Nose mass-parameter (am)
   estimated Nose-frequenzy (Omega)   =  0.10E-29 period in steps =****** mass=  -0.125E-26a.u.
   SCALEE = 1.0000    scale energy and forces
   NPACO  =    256;   APACO  = 16.0  distance and # of slots for P.C.
   PSTRESS=    0.0 pullay stress

  Mass of Ions in am
   POMASS =  28.09  1.00 12.01
  Ionic Valenz
   ZVAL   =   4.00  1.00  4.00
  Atomic Wigner-Seitz radii
  virtual crystal weights
   VCA    =   1.00  1.00  1.00
   NELECT =     238.0000    total number of electrons
   NUPDOWN=      -1.0000    fix difference up-down

 DOS related values:
   EMIN   =  10.00;   EMAX   =-10.00  energy-range for DOS
   EFERMI =   0.00
[...]
   -.142E+02 -.792E+02 0.954E+01   0.149E+02 0.846E+02 -.114E+02   -.686E+00 -.543E+01 0.193E+01   0.172E-05 0.127E-02 -.669E-05
   -.656E-01 -.800E+02 0.193E+02   0.783E+00 0.855E+02 -.211E+02   -.710E+00 -.546E+01 0.175E+01   0.284E-04 0.120E-02 -.583E-04
   0.656E-01 0.800E+02 -.193E+02   -.783E+00 -.855E+02 0.211E+02   0.710E+00 0.546E+01 -.175E+01   -.284E-04 -.120E-02 0.583E-04
   0.142E+02 0.792E+02 -.954E+01   -.149E+02 -.846E+02 0.114E+02   0.686E+00 0.543E+01 -.193E+01   -.172E-05 -.127E-02 0.669E-05
   -.734E+01 -.825E+02 0.126E+02   0.801E+01 0.880E+02 -.144E+02   -.680E+00 -.543E+01 0.177E+01   0.733E-04 0.136E-02 0.758E-04
   -.704E+01 -.758E+02 0.176E+02   0.762E+01 0.813E+02 -.193E+02   -.583E+00 -.546E+01 0.172E+01   -.544E-04 0.120E-02 -.222E-04
   -.402E+02 -.459E+02 -.157E+02   0.449E+02 0.489E+02 0.171E+02   -.474E+01 -.297E+01 -.141E+01   0.666E-04 0.956E-03 0.874E-04
   0.704E+01 0.758E+02 -.176E+02   -.762E+01 -.813E+02 0.193E+02   0.583E+00 0.546E+01 -.172E+01   0.544E-04 -.120E-02 0.222E-04
   0.734E+01 0.825E+02 -.126E+02   -.801E+01 -.880E+02 0.144E+02   0.680E+00 0.543E+01 -.177E+01   -.733E-04 -.136E-02 -.758E-04
   0.366E+02 -.323E+02 0.283E+02   -.408E+02 0.348E+02 -.315E+02   0.415E+01 -.248E+01 0.318E+01   -.220E-04 0.491E-03 0.820E-05
   -.366E+02 0.323E+02 -.283E+02   0.408E+02 -.348E+02 0.315E+02   -.415E+01 0.248E+01 -.318E+01   0.220E-04 -.491E-03 -.820E-05
   0.402E+02 0.459E+02 0.157E+02   -.449E+02 -.489E+02 -.171E+02   0.474E+01 0.297E+01 0.141E+01   -.666E-04 -.956E-03 -.874E-04
   0.312E+02 -.275E+02 -.264E+02   -.333E+02 0.316E+02 0.289E+02   0.212E+01 -.417E+01 -.258E+01   0.219E-03 -.141E-02 -.205E-03
   0.128E+02 0.591E+02 -.271E+02   -.140E+02 -.639E+02 0.292E+02   0.122E+01 0.477E+01 -.207E+01   0.969E-04 -.439E-03 -.279E-03
   -.520E+02 -.106E+02 -.457E+01   0.568E+02 0.126E+02 0.543E+01   -.487E+01 -.201E+01 -.875E+00   -.240E-03 -.568E-03 0.755E-04
   -.328E+01 0.127E+02 -.517E+02   0.454E+01 -.129E+02 0.570E+02   -.127E+01 0.283E+00 -.536E+01   0.357E-04 -.337E-03 -.196E-03
   0.450E+02 0.145E+02 -.245E+01   -.504E+02 -.149E+02 0.210E+01   0.540E+01 0.412E+00 0.349E+00   0.782E-04 -.282E-03 0.101E-05
   -.104E+02 0.498E+02 0.155E+02   0.124E+02 -.543E+02 -.179E+02   -.200E+01 0.450E+01 0.239E+01   0.113E-03 0.113E-03 0.361E-04
   -.593E+01 -.184E+02 0.344E+02   0.803E+01 0.228E+02 -.369E+02   -.211E+01 -.441E+01 0.252E+01   -.694E-04 -.138E-02 0.253E-03
   -.524E+01 0.412E+02 0.383E+02   0.673E+01 -.456E+02 -.412E+02   -.150E+01 0.439E+01 0.293E+01   0.402E-04 -.441E-03 0.179E-03
   0.491E+02 0.437E+01 0.153E+02   -.545E+02 -.402E+01 -.157E+02   0.540E+01 -.339E+00 0.405E+00   0.200E-03 -.870E-03 0.126E-03
   -.133E+01 -.233E+02 0.122E+02   0.200E+01 0.282E+02 -.144E+02   -.676E+00 -.497E+01 0.220E+01   0.780E-04 -.181E-02 0.340E-04
   0.561E+02 0.257E+02 -.604E+01   -.614E+02 -.269E+02 0.576E+01   0.535E+01 0.115E+01 0.292E+00   0.426E-03 -.117E-02 -.189E-03
   -.592E+01 0.155E+02 -.447E+02   0.712E+01 -.150E+02 0.500E+02   -.119E+01 -.507E+00 -.532E+01   0.535E-04 -.134E-02 -.529E-03
   -.219E+02 0.137E+02 -.505E+02   0.228E+02 -.133E+02 0.558E+02   -.960E+00 -.376E+00 -.531E+01   -.128E-03 -.111E-02 -.259E-03
   -.389E+02 0.410E+02 0.625E+01   0.422E+02 -.450E+02 -.815E+01   -.327E+01 0.399E+01 0.190E+01   -.182E-03 -.744E-03 -.934E-04
   -.289E+02 -.198E+02 0.155E+02   0.306E+02 0.245E+02 -.178E+02   -.167E+01 -.472E+01 0.228E+01   -.221E-03 -.149E-02 -.267E-04
   -.316E+02 0.372E+02 0.119E+02   0.354E+02 -.407E+02 -.138E+02   -.378E+01 0.344E+01 0.185E+01   0.650E-04 0.103E-03 0.415E-04
   -.837E+01 0.959E+01 -.477E+02   0.904E+01 -.927E+01 0.532E+02   -.676E+00 -.320E+00 -.547E+01   0.245E-04 0.427E-04 0.116E-03
   0.393E+02 0.346E+02 0.464E+01   -.441E+02 -.371E+02 -.549E+01   0.480E+01 0.244E+01 0.850E+00   -.998E-04 0.180E-03 0.202E-04
   0.405E+02 0.236E+02 0.234E+02   -.454E+02 -.256E+02 -.248E+02   0.486E+01 0.206E+01 0.136E+01   0.119E-03 -.146E-03 0.200E-03
   -.850E+01 -.270E+02 0.291E+02   0.897E+01 0.319E+02 -.317E+02   -.467E+00 -.491E+01 0.254E+01   -.237E-04 -.928E-03 0.180E-03
   -.321E+02 0.292E+02 0.257E+02   0.359E+02 -.326E+02 -.278E+02   -.373E+01 0.332E+01 0.213E+01   -.851E-04 -.691E-04 0.102E-03
   -.197E+02 -.135E+02 0.153E+02   0.171E+02 0.133E+02 -.151E+02   0.266E+01 0.149E+00 -.205E+00   -.714E-03 0.329E-02 0.718E-04
   -.421E+02 -.830E+02 0.420E+02   0.423E+02 0.827E+02 -.418E+02   -.165E+00 0.303E+00 -.164E+00   -.561E-03 0.732E-03 0.392E-03
   -.474E+02 -.319E+02 -.891E+02   0.475E+02 0.318E+02 0.890E+02   -.882E-01 0.797E-01 0.117E+00   -.425E-03 0.315E-02 -.972E-03
   0.630E+01 -.148E+03 0.211E+02   -.490E+01 0.154E+03 -.240E+02   -.142E+01 -.613E+01 0.294E+01   0.454E-03 0.630E-02 -.916E-03
[...]
   -.630E+01 0.148E+03 -.211E+02   0.490E+01 -.154E+03 0.240E+02   0.142E+01 0.613E+01 -.294E+01   -.454E-03 -.630E-02 0.916E-03
   0.217E+02 0.208E+03 -.292E+01   -.221E+02 -.209E+03 0.320E+01   0.389E+00 0.109E+01 -.334E+00   -.122E-03 -.321E-02 -.357E-03
   0.896E+02 -.536E+02 0.705E+02   -.902E+02 0.542E+02 -.710E+02   0.627E+00 -.614E+00 0.508E+00   -.349E-04 0.695E-03 -.149E-04
   -.896E+02 0.536E+02 -.705E+02   0.902E+02 -.542E+02 0.710E+02   -.627E+00 0.614E+00 -.508E+00   0.349E-04 -.695E-03 0.149E-04
   0.936E+02 0.116E+03 0.530E+02   -.942E+02 -.117E+03 -.532E+02   0.763E+00 0.541E+00 0.259E+00   0.359E-05 -.207E-02 -.246E-03
   0.197E+02 0.135E+02 -.153E+02   -.171E+02 -.133E+02 0.151E+02   -.266E+01 -.149E+00 0.205E+00   0.714E-03 -.329E-02 -.718E-04
   0.849E+01 0.941E+02 -.153E+02   -.899E+01 -.938E+02 0.129E+02   0.476E+00 -.222E+00 0.250E+01   -.165E-04 -.309E-02 -.905E-03
   -.326E+02 0.119E+02 -.314E+01   0.306E+02 -.102E+02 0.399E+01   0.204E+01 -.165E+01 -.842E+00   -.659E-03 -.819E-03 0.264E-03
   0.421E+02 0.830E+02 -.420E+02   -.423E+02 -.827E+02 0.418E+02   0.165E+00 -.303E+00 0.164E+00   0.561E-03 -.732E-03 -.392E-03
   0.474E+02 0.319E+02 0.891E+02   -.475E+02 -.318E+02 -.890E+02   0.882E-01 -.797E-01 -.117E+00   0.425E-03 -.315E-02 0.972E-03
   0.534E+02 0.382E+02 -.458E+02   -.530E+02 -.383E+02 0.462E+02   -.293E+00 0.871E-01 -.407E+00   0.865E-03 -.517E-02 -.106E-02
   -.951E+02 0.549E+02 -.353E+02   0.950E+02 -.546E+02 0.354E+02   0.190E+00 -.199E+00 -.142E+00   -.772E-03 -.393E-02 -.589E-03
   -.936E+01 0.905E+02 -.314E+02   0.963E+01 -.904E+02 0.312E+02   -.264E+00 -.165E+00 0.190E+00   -.195E-03 0.343E-03 0.307E-03
   -.977E+01 0.327E+02 0.854E+02   0.101E+02 -.325E+02 -.854E+02   -.291E+00 -.132E+00 -.626E-01   -.199E-03 -.111E-02 0.823E-03
   0.206E-03 0.560E-04 -.822E-04   0.497E-13 0.796E-12 -.568E-13   -.289E-14 0.125E-14 0.527E-15   0.109E-08 0.264E-09 0.185E-08

 POSITION                                       TOTAL-FORCE (eV/Angst)
      4.09653      5.15227      5.36719        -0.016350     -0.030865      0.052716
     -0.41675     11.00023      2.25504         0.016350      0.030865     -0.052716
     -0.98568      4.50719      5.10964         0.010061      0.001572      0.002499
     -1.16691      6.69812      3.91710        -0.002723      0.008847      0.008959
      0.18982      6.72592      5.05523         0.002741     -0.007339      0.001253
     -1.31727      7.54658      5.46547         0.005576      0.005240     -0.003138
     -1.39642      4.38701      7.61112        -0.000639     -0.003488      0.002818
     -0.57506      6.31420      0.06583         0.001576      0.002420     -0.000730
      0.12251      5.20423      7.18554         0.000834     -0.004167     -0.006342
      3.99449      6.02528      3.07887         0.006644      0.018741      0.007277
      1.96596      6.06145      5.95689        -0.006245     -0.000845      0.014996
      4.47704      2.99066      3.26240         0.006823      0.005281     -0.001596
      5.69077      4.22327      2.88313        -0.000196     -0.004126     -0.004116
      4.37328      3.89367      1.74445        -0.006966      0.015302     -0.009026
      2.06289      4.69657      2.14441         0.001421      0.000225     -0.005797
      1.60955      5.57503      3.61452        -0.009514      0.003450      0.007494
      1.92447      3.82944      3.68663         0.000691      0.003107      0.000010
      2.28428      8.52753      5.83251        -0.002793      0.000120      0.008091
      2.91973      7.76383      4.36459         0.002416     -0.004482      0.006009
      4.02570      8.32126      5.62726         0.004634      0.007898      0.002065
      4.82598      7.17597      0.30460         0.013690      0.018053     -0.007206
      3.75132      5.78660      0.53868         0.002169     -0.001079     -0.003969
      3.08519      7.43295      0.46490        -0.000923      0.001194      0.001038
      6.17101      2.44665      0.36747         0.004203      0.004954      0.004298
      1.09665      2.09593      5.70567         0.009511      0.004650     -0.007641
      2.58314     14.05657      1.91656        -0.009511     -0.004650      0.007641
     -2.49123     13.70585      7.25476        -0.004203     -0.004954     -0.004298
      0.94327      2.57767      1.54509        -0.005603      0.001575     -0.007571
      6.27374      2.00623      4.59386        -0.001886     -0.006331     -0.003980
      2.68790      1.48998      2.90851        -0.014180      0.007574     -0.000592
     -2.59395     14.14627      3.02837         0.001886      0.006331      0.003980
      2.73651     13.57483      6.07714         0.005603     -0.001575      0.007571
      4.25993      0.71851      3.97742         0.009425      0.001885      0.002871
     -0.58015     15.43399      3.64481        -0.009425     -0.001885     -0.002871
      0.99189     14.66252      4.71372         0.014180     -0.007574      0.000592
      4.66546     11.64531      2.51259        -0.010061     -0.001572     -0.002499
     -0.31471     10.12722      4.54336        -0.006644     -0.018741     -0.007277
      1.71383     10.09105      1.66534         0.006245      0.000845     -0.014996
      4.84669      9.45438      3.70513         0.002723     -0.008847     -0.008959
      3.48997      9.42658      2.56700        -0.002741      0.007339     -0.001253
      4.99705      8.60592      2.15676        -0.005576     -0.005240      0.003138
      5.07620     11.76549      0.01111         0.000639      0.003488     -0.002818
      4.25485      9.83830      7.55640        -0.001576     -0.002420      0.000730
      3.55727     10.94827      0.43669        -0.000834      0.004167      0.006342
     -0.79726     13.16184      4.35983        -0.006823     -0.005281      0.001596
     -2.01098     11.92923      4.73910         0.000196      0.004126      0.004116
     -0.69349     12.25883      5.87778         0.006966     -0.015302      0.009026
      1.61690     11.45593      5.47783        -0.001421     -0.000225      0.005797
      2.07023     10.57747      4.00771         0.009514     -0.003450     -0.007494
      1.75532     12.32306      3.93560        -0.000691     -0.003107     -0.000010
      1.39550      7.62497      1.78972         0.002793     -0.000120     -0.008091
      0.76005      8.38866      3.25764        -0.002416      0.004482     -0.006009
     -0.34592      7.83124      1.99497        -0.004634     -0.007898     -0.002065
     -1.14619      8.97652      7.31763        -0.013690     -0.018053      0.007206
     -0.07154     10.36590      7.08355        -0.002169      0.001079      0.003969
      0.59460      8.71955      7.15733         0.000923     -0.001194     -0.001038
     -1.42198      5.36883      5.64769         0.012628      0.000992      0.014782
     -0.90563      6.64997      4.98238         0.001124      0.015207     -0.025631
     -0.97487      5.26986      7.11194        -0.003242     -0.015449     -0.017489
      3.62849      3.56458      6.14235        -0.005268      0.062718     -0.011303
[...]
     -2.47804     15.18200      2.70765        -0.013498      0.002496     -0.016199
      0.05129     12.58792      1.47988         0.005268     -0.062718      0.011303
      2.85752     14.60540      5.74170        -0.029369      0.022339     -0.045878
      5.04170      0.25505      4.57517         0.036000     -0.022136     -0.046209
     -1.36192     15.89745      3.04706        -0.036000      0.022136      0.046209
      1.89030     15.21405      4.98748         0.062624     -0.041281      0.061257
      5.10176     10.78367      1.97454        -0.012628     -0.000992     -0.014782
     -0.06012     11.11627      4.12189        -0.030142      0.025949      0.070580
      0.70648      9.67728      1.47824         0.001693      0.021347      0.016920
      4.58541      9.50253      2.63985        -0.001124     -0.015207      0.025631
      4.65465     10.88264      0.51029         0.003242      0.015449      0.017489
     -0.94051     12.16842      4.80861         0.010654     -0.017494      0.003750
      1.42708     11.37890      4.39494         0.007637      0.004518      0.003324
      0.62553      8.31363      2.17067         0.000248     -0.020375      0.014577
     -0.16472      9.39278      7.58314        -0.007669      0.037527     -0.022342
    total drift:                                0.000206      0.000056     -0.000082

  FREE ENERGIE OF THE ION-ELECTRON SYSTEM (eV)
  free  energy   TOTEN  =      -612.04228636 eV

  energy  without entropy=     -612.04228636  energy(sigma->0) =     -612.04228636

 writing wavefunctions

 total charge

# of ion       s       p       d       tot
    1        0.724   1.014   0.000   1.739
    2        0.724   1.014   0.000   1.739
    3        0.641   0.044   0.000   0.686
    4        0.647   0.045   0.000   0.691
    5        0.645   0.044   0.000   0.689
    6        0.647   0.044   0.000   0.692
    7        0.645   0.045   0.000   0.689
    8        0.647   0.044   0.000   0.692
    9        0.643   0.044   0.000   0.686
   10        0.642   0.045   0.000   0.687
   11        0.642   0.045   0.000   0.687
   12        0.645   0.044   0.000   0.689
   13        0.645   0.044   0.000   0.689
   14        0.641   0.044   0.000   0.686
   15        0.643   0.043   0.000   0.686
   16        0.646   0.045   0.000   0.691
   17        0.643   0.044   0.000   0.687
   18        0.643   0.044   0.000   0.687
   19        0.646   0.045   0.000   0.691
   20        0.647   0.044   0.000   0.691
   21        0.648   0.044   0.000   0.692
   22        0.644   0.045   0.000   0.689
   23        0.645   0.044   0.000   0.689
   24        0.644   0.048   0.000   0.693
   25        0.642   0.048   0.000   0.690
   26        0.642   0.048   0.000   0.690
   27        0.644   0.048   0.000   0.693
   28        0.645   0.047   0.000   0.692
   29        0.645   0.047   0.000   0.692
   30        0.648   0.047   0.000   0.696
   31        0.645   0.047   0.000   0.692
   32        0.645   0.047   0.000   0.692
   33        0.650   0.048   0.000   0.698
   34        0.650   0.048   0.000   0.698
   35        0.648   0.047   0.000   0.696
   36        0.641   0.044   0.000   0.686
   37        0.642   0.045   0.000   0.687
   38        0.642   0.045   0.000   0.687
   39        0.647   0.045   0.000   0.691
   40        0.645   0.044   0.000   0.689
   41        0.647   0.044   0.000   0.692
   42        0.645   0.045   0.000   0.689
   43        0.647   0.044   0.000   0.692
   44        0.643   0.044   0.000   0.686
   45        0.645   0.044   0.000   0.689
   46        0.645   0.044   0.000   0.689
   47        0.641   0.044   0.000   0.686
   48        0.643   0.043   0.000   0.686
   49        0.646   0.045   0.000   0.691
   50        0.643   0.044   0.000   0.687
   51        0.643   0.044   0.000   0.687
   52        0.646   0.045   0.000   0.691
   53        0.647   0.044   0.000   0.691
   54        0.648   0.044   0.000   0.692
   55        0.644   0.045   0.000   0.689
   56        0.645   0.044   0.000   0.689
   57        0.822   1.738   0.000   2.560
   58        0.838   1.782   0.000   2.620
   59        0.836   1.781   0.000   2.617
   60        0.905   1.710   0.000   2.616
[...]
   86        0.869   1.776   0.000   2.645
   87        0.905   1.710   0.000   2.616
   88        0.869   1.775   0.000   2.644
   89        0.868   1.774   0.000   2.643
   90        0.868   1.774   0.000   2.643
   91        0.868   1.775   0.000   2.643
   92        0.822   1.738   0.000   2.560
   93        0.823   1.736   0.000   2.559
   94        0.823   1.741   0.000   2.564
   95        0.838   1.782   0.000   2.620
   96        0.836   1.781   0.000   2.617
   97        0.837   1.781   0.000   2.618
   98        0.837   1.780   0.000   2.617
   99        0.838   1.783   0.000   2.621
  100        0.838   1.783   0.000   2.621
tot         73.926  82.291   0.000 156.218